(set-logic QF_S)
(declare-fun var0 () String)
(assert (str.in.re var0 (re.++ (re.* (re.union (str.to.re "000") (str.to.re "1"))) (re.++ (re.+ (re.* (str.to.re "222"))) (re.++ (re.union (re.* (str.to.re "333")) (re.* (str.to.re "4"))) (re.++ (re.union (re.+ (str.to.re "55")) (re.+ (str.to.re "6"))) (re.++ (re.+ (re.+ (str.to.re "7"))) (re.++ (re.union (re.union (str.to.re "888") (str.to.re "9")) (re.union (str.to.re "aa") (str.to.re "bbb"))) (re.++ (re.* (re.union (str.to.re "ccc") (str.to.re "dd"))) (re.++ (re.* (re.union (str.to.re "ee") (str.to.re "fff"))) (re.++ (re.+ (re.* (str.to.re "ggg"))) (re.* (re.+ (str.to.re "h"))))))))))))))
(assert (<= 151 (str.len var0)))
(check-sat)